NAME: A-n37-k6-C13-V2
TYPE: SoftCluVRP
DIMENSION:  37 
VEHICLES:  2 
GVRP_SETS:  13 
CAPACITY:  100 
EDGE_WEIGHT_TYPE: EUC_2D
NODE_COORD_SECTION 
1 86.000000 22.000000
2 29.000000 17.000000
3 4.000000 50.000000
4 25.000000 13.000000
5 67.000000 37.000000
6 13.000000 7.000000
7 62.000000 15.000000
8 84.000000 38.000000
9 34.000000 3.000000
10 19.000000 45.000000
11 42.000000 76.000000
12 40.000000 86.000000
13 25.000000 94.000000
14 63.000000 57.000000
15 75.000000 24.000000
16 61.000000 85.000000
17 87.000000 38.000000
18 54.000000 39.000000
19 66.000000 34.000000
20 46.000000 39.000000
21 47.000000 17.000000
22 21.000000 54.000000
23 19.000000 83.000000
24 1.000000 82.000000
25 94.000000 28.000000
26 82.000000 72.000000
27 41.000000 59.000000
28 100.000000 77.000000
29 1.000000 57.000000
30 96.000000 7.000000
31 57.000000 82.000000
32 47.000000 38.000000
33 68.000000 89.000000
34 16.000000 36.000000
35 51.000000 38.000000
36 83.000000 74.000000
37 84.000000 2.000000
GVRP_SET_SECTION 
 1 24 -1
 2  30  37 -1
 3  6  4 -1
 4  28  26  36 -1
 5  18  5  14  19  20  32  35 -1
 6  31  11  12  16  33 -1
 7  10  22  34 -1
 8  17  8  25 -1
 9  13  23 -1
 10  7  15  21 -1
 11  27 -1
 12  29  3 -1
 13  9  2 -1
 DEMAND_SECTION
 1 9 
 2 19 
 3 15 
 4 26 
 5 14 
 6 20 
 7 15 
 8 15 
 9 7 
 10 12 
 11 20 
 12 13 
 13 10 
EOF
